c This is the enc2 file generate by sty
p cnf 594 758
 1 2 0
 -1 -2 0
 5 6 0
 -5 -6 0
 11 12 0
 -11 -12 0
 17 18 0
 -17 -18 0
 23 24 0
 -23 -24 0
 25 26 0
 -25 -26 0
 27 28 0
 -27 -28 0
 29 30 0
 -29 -30 0
 31 32 0
 -31 -32 0
 33 34 0
 -33 -34 0
 35 36 0
 -35 -36 0
 37 38 0
 -37 -38 0
 39 40 0
 -39 -40 0
 41 42 0
 -41 -42 0
 43 44 0
 -43 -44 0
 53 54 0
 -53 -54 0
 63 64 0
 -63 -64 0
 65 66 0
 -65 -66 0
 75 76 0
 -75 -76 0
 77 78 0
 -77 -78 0
 87 88 0
 -87 -88 0
 89 90 0
 -89 -90 0
 99 100 0
 -99 -100 0
 101 102 0
 -101 -102 0
 111 112 0
 -111 -112 0
 121 122 0
 -121 -122 0
 131 132 0
 -131 -132 0
 141 142 0
 -141 -142 0
 143 144 0
 -143 -144 0
 153 154 0
 -153 -154 0
 155 156 0
 -155 -156 0
 161 162 0
 -161 -162 0
 171 172 0
 -171 -172 0
 173 174 0
 -173 -174 0
 175 176 0
 -175 -176 0
 177 178 0
 -177 -178 0
 187 188 0
 -187 -188 0
 197 198 0
 -197 -198 0
 199 200 0
 -199 -200 0
 209 210 0
 -209 -210 0
 211 212 0
 -211 -212 0
 213 214 0
 -213 -214 0
 215 216 0
 -215 -216 0
 217 218 0
 -217 -218 0
 227 228 0
 -227 -228 0
 237 238 0
 -237 -238 0
 247 248 0
 -247 -248 0
 257 258 0
 -257 -258 0
 267 268 0
 -267 -268 0
 269 270 0
 -269 -270 0
 279 280 0
 -279 -280 0
 285 286 0
 -285 -286 0
 295 296 0
 -295 -296 0
 297 298 0
 -297 -298 0
 307 308 0
 -307 -308 0
 317 318 0
 -317 -318 0
 327 328 0
 -327 -328 0
 329 330 0
 -329 -330 0
 339 340 0
 -339 -340 0
 349 350 0
 -349 -350 0
 351 352 0
 -351 -352 0
 357 358 0
 -357 -358 0
 367 368 0
 -367 -368 0
 377 378 0
 -377 -378 0
 379 380 0
 -379 -380 0
 389 390 0
 -389 -390 0
 399 400 0
 -399 -400 0
 401 402 0
 -401 -402 0
 411 412 0
 -411 -412 0
 421 422 0
 -421 -422 0
 431 432 0
 -431 -432 0
 437 438 0
 -437 -438 0
 439 440 0
 -439 -440 0
 449 450 0
 -449 -450 0
 451 452 0
 -451 -452 0
 453 454 0
 -453 -454 0
 455 456 0
 -455 -456 0
 457 458 0
 -457 -458 0
 467 468 0
 -467 -468 0
 477 478 0
 -477 -478 0
 479 480 0
 -479 -480 0
 485 486 0
 -485 -486 0
 487 488 0
 -487 -488 0
 497 498 0
 -497 -498 0
 507 508 0
 -507 -508 0
 517 518 0
 -517 -518 0
 527 528 0
 -527 -528 0
 537 538 0
 -537 -538 0
 539 540 0
 -539 -540 0
 541 542 0
 -541 -542 0
 551 552 0
 -551 -552 0
 553 554 0
 -553 -554 0
 563 564 0
 -563 -564 0
 565 566 0
 -565 -566 0
 567 568 0
 -567 -568 0
 577 578 0
 -577 -578 0
 579 580 0
 -579 -580 0
 581 582 0
 -581 -582 0
 583 584 0
 -583 -584 0
 585 586 0
 -585 -586 0
 -1 3 0
 -2 4 0
 -5 -1 7 0
 -5 -2 8 0
 -6 -1 9 0
 -6 -2 10 0
 -11 -5 13 0
 -11 -6 14 0
 -12 -5 15 0
 -12 -6 16 0
 -17 -11 19 0
 -17 -12 20 0
 -18 -11 21 0
 -18 -12 22 0
 -23 -17 0
 -24 -18 0
 -25 -23 0
 -26 -24 0
 -27 -25 0
 -28 -26 0
 -29 -27 0
 -30 -28 0
 -31 -29 0
 -32 -30 0
 -33 -31 0
 -34 -32 0
 -35 -2 0
 -36 -1 0
 -37 -36 -5 0
 -37 -35 -6 0
 -38 -35 -5 0
 -38 -36 -6 0
 -39 -37 -11 0
 -39 -37 -12 0
 -40 -38 -11 0
 -40 -38 -12 0
 -41 -40 -17 0
 -42 -39 -17 0
 -42 -39 -18 0
 -42 -40 -18 0
 -43 -41 -23 45 0
 -43 -42 -23 46 0
 -43 -41 -24 47 0
 -43 -42 -24 48 0
 -44 -41 -23 49 0
 -44 -42 -23 50 0
 -44 -41 -24 51 0
 -44 -42 -24 52 0
 -53 -43 -25 55 0
 -53 -44 -25 56 0
 -53 -43 -26 57 0
 -53 -44 -26 58 0
 -54 -43 -25 59 0
 -54 -44 -25 60 0
 -54 -43 -26 61 0
 -54 -44 -26 62 0
 -63 -53 -27 0
 -63 -54 -27 0
 -64 -53 -28 0
 -64 -54 -28 0
 -65 -63 -29 67 0
 -65 -64 -29 68 0
 -65 -63 -30 69 0
 -65 -64 -30 70 0
 -66 -63 -29 71 0
 -66 -64 -29 72 0
 -66 -63 -30 73 0
 -66 -64 -30 74 0
 -75 -65 -31 0
 -76 -66 -31 0
 -76 -65 -32 0
 -76 -66 -32 0
 -77 -75 -33 79 0
 -77 -76 -33 80 0
 -77 -75 -34 81 0
 -77 -76 -34 82 0
 -78 -75 -33 83 0
 -78 -76 -33 84 0
 -78 -75 -34 85 0
 -78 -76 -34 86 0
 -87 -36 0
 -88 -35 0
 -89 -87 -37 91 0
 -89 -88 -37 92 0
 -89 -87 -38 93 0
 -89 -88 -38 94 0
 -90 -87 -37 95 0
 -90 -88 -37 96 0
 -90 -87 -38 97 0
 -90 -88 -38 98 0
 -99 -89 -39 0
 -99 -90 -39 0
 -99 -89 -40 0
 -100 -90 -40 0
 -101 -99 -41 103 0
 -101 -100 -41 104 0
 -101 -99 -42 105 0
 -101 -100 -42 106 0
 -102 -99 -41 107 0
 -102 -100 -41 108 0
 -102 -99 -42 109 0
 -102 -100 -42 110 0
 -111 -101 -43 113 0
 -111 -102 -43 114 0
 -111 -101 -44 115 0
 -111 -102 -44 116 0
 -112 -101 -43 117 0
 -112 -102 -43 118 0
 -112 -101 -44 119 0
 -112 -102 -44 120 0
 -121 -111 -53 123 0
 -121 -112 -53 124 0
 -121 -111 -54 125 0
 -121 -112 -54 126 0
 -122 -111 -53 127 0
 -122 -112 -53 128 0
 -122 -111 -54 129 0
 -122 -112 -54 130 0
 -131 -121 -63 133 0
 -131 -122 -63 134 0
 -131 -121 -64 135 0
 -131 -122 -64 136 0
 -132 -121 -63 137 0
 -132 -122 -63 138 0
 -132 -121 -64 139 0
 -132 -122 -64 140 0
 -141 -132 -66 0
 -142 -131 -65 0
 -142 -132 -65 0
 -142 -131 -66 0
 -143 -141 -75 145 0
 -143 -142 -75 146 0
 -143 -141 -76 147 0
 -143 -142 -76 148 0
 -144 -141 -75 149 0
 -144 -142 -75 150 0
 -144 -141 -76 151 0
 -144 -142 -76 152 0
 -153 -143 -78 0
 -154 -143 -77 0
 -154 -144 -77 0
 -154 -144 -78 0
 -155 -87 157 0
 -155 -88 158 0
 -156 -87 159 0
 -156 -88 160 0
 -161 -155 -89 163 0
 -161 -156 -89 164 0
 -161 -155 -90 165 0
 -161 -156 -90 166 0
 -162 -155 -89 167 0
 -162 -156 -89 168 0
 -162 -155 -90 169 0
 -162 -156 -90 170 0
 -171 -161 -100 0
 -171 -162 -100 0
 -172 -161 -99 0
 -172 -162 -99 0
 -173 -171 -102 0
 -173 -172 -102 0
 -174 -171 -101 0
 -174 -172 -101 0
 -175 -174 -111 0
 -176 -173 -111 0
 -176 -173 -112 0
 -176 -174 -112 0
 -177 -175 -121 179 0
 -177 -176 -121 180 0
 -177 -175 -122 181 0
 -177 -176 -122 182 0
 -178 -175 -121 183 0
 -178 -176 -121 184 0
 -178 -175 -122 185 0
 -178 -176 -122 186 0
 -187 -177 -131 189 0
 -187 -178 -131 190 0
 -187 -177 -132 191 0
 -187 -178 -132 192 0
 -188 -177 -131 193 0
 -188 -178 -131 194 0
 -188 -177 -132 195 0
 -188 -178 -132 196 0
 -197 -187 -142 0
 -198 -187 -141 0
 -198 -188 -141 0
 -198 -188 -142 0
 -199 -197 -143 201 0
 -199 -198 -143 202 0
 -199 -197 -144 203 0
 -199 -198 -144 204 0
 -200 -197 -143 205 0
 -200 -198 -143 206 0
 -200 -197 -144 207 0
 -200 -198 -144 208 0
 -209 -199 -154 0
 -209 -200 -154 0
 -210 -199 -153 0
 -210 -200 -153 0
 -211 -156 0
 -212 -155 0
 -213 -211 -161 0
 -213 -212 -161 0
 -214 -211 -162 0
 -214 -212 -162 0
 -215 -213 -171 0
 -215 -213 -172 0
 -216 -214 -171 0
 -216 -214 -172 0
 -217 -215 -173 219 0
 -217 -216 -173 220 0
 -217 -215 -174 221 0
 -217 -216 -174 222 0
 -218 -215 -173 223 0
 -218 -216 -173 224 0
 -218 -215 -174 225 0
 -218 -216 -174 226 0
 -227 -217 -175 229 0
 -227 -218 -175 230 0
 -227 -217 -176 231 0
 -227 -218 -176 232 0
 -228 -217 -175 233 0
 -228 -218 -175 234 0
 -228 -217 -176 235 0
 -228 -218 -176 236 0
 -237 -227 -177 239 0
 -237 -228 -177 240 0
 -237 -227 -178 241 0
 -237 -228 -178 242 0
 -238 -227 -177 243 0
 -238 -228 -177 244 0
 -238 -227 -178 245 0
 -238 -228 -178 246 0
 -247 -237 -187 249 0
 -247 -238 -187 250 0
 -247 -237 -188 251 0
 -247 -238 -188 252 0
 -248 -237 -187 253 0
 -248 -238 -187 254 0
 -248 -237 -188 255 0
 -248 -238 -188 256 0
 -257 -247 -197 259 0
 -257 -248 -197 260 0
 -257 -247 -198 261 0
 -257 -248 -198 262 0
 -258 -247 -197 263 0
 -258 -248 -197 264 0
 -258 -247 -198 265 0
 -258 -248 -198 266 0
 -267 -258 -199 0
 -267 -257 -200 0
 -267 -258 -200 0
 -268 -257 -199 0
 -269 -267 -209 271 0
 -269 -268 -209 272 0
 -269 -267 -210 273 0
 -269 -268 -210 274 0
 -270 -267 -209 275 0
 -270 -268 -209 276 0
 -270 -267 -210 277 0
 -270 -268 -210 278 0
 -279 -211 281 0
 -279 -212 282 0
 -280 -211 283 0
 -280 -212 284 0
 -285 -279 -213 287 0
 -285 -280 -213 288 0
 -285 -279 -214 289 0
 -285 -280 -214 290 0
 -286 -279 -213 291 0
 -286 -280 -213 292 0
 -286 -279 -214 293 0
 -286 -280 -214 294 0
 -295 -286 -216 0
 -296 -285 -215 0
 -296 -286 -215 0
 -296 -285 -216 0
 -297 -295 -217 299 0
 -297 -296 -217 300 0
 -297 -295 -218 301 0
 -297 -296 -218 302 0
 -298 -295 -217 303 0
 -298 -296 -217 304 0
 -298 -295 -218 305 0
 -298 -296 -218 306 0
 -307 -297 -227 309 0
 -307 -298 -227 310 0
 -307 -297 -228 311 0
 -307 -298 -228 312 0
 -308 -297 -227 313 0
 -308 -298 -227 314 0
 -308 -297 -228 315 0
 -308 -298 -228 316 0
 -317 -307 -237 319 0
 -317 -308 -237 320 0
 -317 -307 -238 321 0
 -317 -308 -238 322 0
 -318 -307 -237 323 0
 -318 -308 -237 324 0
 -318 -307 -238 325 0
 -318 -308 -238 326 0
 -327 -317 -248 0
 -328 -317 -247 0
 -328 -318 -247 0
 -328 -318 -248 0
 -329 -327 -257 331 0
 -329 -328 -257 332 0
 -329 -327 -258 333 0
 -329 -328 -258 334 0
 -330 -327 -257 335 0
 -330 -328 -257 336 0
 -330 -327 -258 337 0
 -330 -328 -258 338 0
 -339 -329 -267 341 0
 -339 -330 -267 342 0
 -339 -329 -268 343 0
 -339 -330 -268 344 0
 -340 -329 -267 345 0
 -340 -330 -267 346 0
 -340 -329 -268 347 0
 -340 -330 -268 348 0
 -349 -340 -269 0
 -349 -339 -270 0
 -349 -340 -270 0
 -350 -339 -269 0
 -351 -279 353 0
 -351 -280 354 0
 -352 -279 355 0
 -352 -280 356 0
 -357 -351 -285 359 0
 -357 -352 -285 360 0
 -357 -351 -286 361 0
 -357 -352 -286 362 0
 -358 -351 -285 363 0
 -358 -352 -285 364 0
 -358 -351 -286 365 0
 -358 -352 -286 366 0
 -367 -357 -295 369 0
 -367 -358 -295 370 0
 -367 -357 -296 371 0
 -367 -358 -296 372 0
 -368 -357 -295 373 0
 -368 -358 -295 374 0
 -368 -357 -296 375 0
 -368 -358 -296 376 0
 -377 -368 -297 0
 -377 -368 -298 0
 -378 -367 -297 0
 -378 -367 -298 0
 -379 -377 -307 381 0
 -379 -378 -307 382 0
 -379 -377 -308 383 0
 -379 -378 -308 384 0
 -380 -377 -307 385 0
 -380 -378 -307 386 0
 -380 -377 -308 387 0
 -380 -378 -308 388 0
 -389 -379 -317 391 0
 -389 -380 -317 392 0
 -389 -379 -318 393 0
 -389 -380 -318 394 0
 -390 -379 -317 395 0
 -390 -380 -317 396 0
 -390 -379 -318 397 0
 -390 -380 -318 398 0
 -399 -389 -328 0
 -400 -389 -327 0
 -400 -390 -327 0
 -400 -390 -328 0
 -401 -399 -329 403 0
 -401 -400 -329 404 0
 -401 -399 -330 405 0
 -401 -400 -330 406 0
 -402 -399 -329 407 0
 -402 -400 -329 408 0
 -402 -399 -330 409 0
 -402 -400 -330 410 0
 -411 -401 -339 413 0
 -411 -402 -339 414 0
 -411 -401 -340 415 0
 -411 -402 -340 416 0
 -412 -401 -339 417 0
 -412 -402 -339 418 0
 -412 -401 -340 419 0
 -412 -402 -340 420 0
 -421 -411 -349 423 0
 -421 -412 -349 424 0
 -421 -411 -350 425 0
 -421 -412 -350 426 0
 -422 -411 -349 427 0
 -422 -412 -349 428 0
 -422 -411 -350 429 0
 -422 -412 -350 430 0
 -431 -351 433 0
 -431 -352 434 0
 -432 -351 435 0
 -432 -352 436 0
 -437 -431 -357 0
 -437 -432 -357 0
 -437 -431 -358 0
 -438 -432 -358 0
 -439 -437 -367 441 0
 -439 -438 -367 442 0
 -439 -437 -368 443 0
 -439 -438 -368 444 0
 -440 -437 -367 445 0
 -440 -438 -367 446 0
 -440 -437 -368 447 0
 -440 -438 -368 448 0
 -449 -439 -377 0
 -449 -439 -378 0
 -449 -440 -378 0
 -450 -440 -377 0
 -451 -450 -379 0
 -451 -449 -380 0
 -452 -449 -379 0
 -452 -450 -380 0
 -453 -451 -390 0
 -454 -451 -389 0
 -454 -452 -389 0
 -454 -452 -390 0
 -455 -453 -399 0
 -455 -454 -399 0
 -455 -453 -400 0
 -456 -454 -400 0
 -457 -455 -401 459 0
 -457 -456 -401 460 0
 -457 -455 -402 461 0
 -457 -456 -402 462 0
 -458 -455 -401 463 0
 -458 -456 -401 464 0
 -458 -455 -402 465 0
 -458 -456 -402 466 0
 -467 -457 -411 469 0
 -467 -458 -411 470 0
 -467 -457 -412 471 0
 -467 -458 -412 472 0
 -468 -457 -411 473 0
 -468 -458 -411 474 0
 -468 -457 -412 475 0
 -468 -458 -412 476 0
 -477 -467 -421 0
 -477 -468 -421 0
 -477 -468 -422 0
 -478 -467 -422 0
 -479 -431 481 0
 -479 -432 482 0
 -480 -431 483 0
 -480 -432 484 0
 -485 -479 -437 0
 -485 -479 -438 0
 -486 -480 -437 0
 -486 -480 -438 0
 -487 -485 -439 489 0
 -487 -486 -439 490 0
 -487 -485 -440 491 0
 -487 -486 -440 492 0
 -488 -485 -439 493 0
 -488 -486 -439 494 0
 -488 -485 -440 495 0
 -488 -486 -440 496 0
 -497 -487 -449 499 0
 -497 -488 -449 500 0
 -497 -487 -450 501 0
 -497 -488 -450 502 0
 -498 -487 -449 503 0
 -498 -488 -449 504 0
 -498 -487 -450 505 0
 -498 -488 -450 506 0
 -507 -497 -451 509 0
 -507 -498 -451 510 0
 -507 -497 -452 511 0
 -507 -498 -452 512 0
 -508 -497 -451 513 0
 -508 -498 -451 514 0
 -508 -497 -452 515 0
 -508 -498 -452 516 0
 -517 -507 -453 519 0
 -517 -508 -453 520 0
 -517 -507 -454 521 0
 -517 -508 -454 522 0
 -518 -507 -453 523 0
 -518 -508 -453 524 0
 -518 -507 -454 525 0
 -518 -508 -454 526 0
 -527 -517 -455 529 0
 -527 -518 -455 530 0
 -527 -517 -456 531 0
 -527 -518 -456 532 0
 -528 -517 -455 533 0
 -528 -518 -455 534 0
 -528 -517 -456 535 0
 -528 -518 -456 536 0
 -537 -527 -457 0
 -537 -527 -458 0
 -537 -528 -458 0
 -538 -528 -457 0
 -539 -537 -467 0
 -539 -538 -468 0
 -540 -538 -467 0
 -540 -537 -468 0
 -541 -539 -477 543 0
 -541 -540 -477 544 0
 -541 -539 -478 545 0
 -541 -540 -478 546 0
 -542 -539 -477 547 0
 -542 -540 -477 548 0
 -542 -539 -478 549 0
 -542 -540 -478 550 0
 -551 -480 0
 -552 -479 0
 -553 -551 -485 555 0
 -553 -552 -485 556 0
 -553 -551 -486 557 0
 -553 -552 -486 558 0
 -554 -551 -485 559 0
 -554 -552 -485 560 0
 -554 -551 -486 561 0
 -554 -552 -486 562 0
 -563 -554 -487 0
 -563 -553 -488 0
 -564 -553 -487 0
 -564 -554 -488 0
 -565 -564 -497 0
 -565 -563 -498 0
 -565 -564 -498 0
 -566 -563 -497 0
 -567 -565 -507 569 0
 -567 -566 -507 570 0
 -567 -565 -508 571 0
 -567 -566 -508 572 0
 -568 -565 -507 573 0
 -568 -566 -507 574 0
 -568 -565 -508 575 0
 -568 -566 -508 576 0
 -577 -567 -517 0
 -577 -568 -517 0
 -577 -567 -518 0
 -578 -568 -518 0
 -579 -577 -527 0
 -579 -578 -528 0
 -580 -578 -527 0
 -580 -577 -528 0
 -581 -579 -538 0
 -582 -579 -537 0
 -582 -580 -537 0
 -582 -580 -538 0
 -583 -581 -539 0
 -583 -582 -539 0
 -583 -581 -540 0
 -584 -582 -540 0
 -585 -583 -541 587 0
 -585 -584 -541 588 0
 -585 -583 -542 589 0
 -585 -584 -542 590 0
 -586 -583 -541 591 0
 -586 -584 -541 592 0
 -586 -583 -542 593 0
 -586 -584 -542 594 0
